Route #1: 37 29 27 10 44 47
Route #2: 8 5 51 33 35 7 43 2
Route #3: 48 38 34 32 19 15 13 46 16 9
Route #4: 26 49 17 22 50 12 23 45 4
Route #5: 28 11 21 14 39 24 31 3 30 18
Route #6: 41 6 1 20 42 40
Route #7: 36 25
Cost 768